<?xml version = "1.0" standalone="yes"?>
<!-- This file has been generated by DOcplex version 2.23.222  -->
<CPLEXSolution version="1.0">
 <header
   problemName="CVRP"
   objectiveValue="12060.5"
  />
 <variables>
  <variable name="x_0_1" index="0" value="1.00000"/>
  <variable name="x_0_2" index="1" value="1.00000"/>
  <variable name="x_0_5" index="4" value="1.00000"/>
  <variable name="x_0_6" index="5" value="1.00000"/>
  <variable name="x_0_7" index="6" value="1.00000"/>
  <variable name="x_0_8" index="7" value="1.00000"/>
  <variable name="x_0_9" index="8" value="1.00000"/>
  <variable name="x_0_11" index="10" value="1.00000"/>
  <variable name="x_0_13" index="12" value="1.00000"/>
  <variable name="x_0_14" index="13" value="1.00000"/>
  <variable name="x_0_17" index="16" value="1.00000"/>
  <variable name="x_0_19" index="18" value="1.00000"/>
  <variable name="x_0_22" index="21" value="1.00000"/>
  <variable name="x_0_23" index="22" value="1.00000"/>
  <variable name="x_1_16" index="38" value="1.00000"/>
  <variable name="x_2_3" index="48" value="1.00000"/>
  <variable name="x_3_0" index="69" value="1.00000"/>
  <variable name="x_4_0" index="92" value="1.00000"/>
  <variable name="x_5_15" index="129" value="1.00000"/>
  <variable name="x_6_12" index="149" value="1.00000"/>
  <variable name="x_7_0" index="161" value="1.00000"/>
  <variable name="x_8_0" index="184" value="1.00000"/>
  <variable name="x_9_20" index="226" value="1.00000"/>
  <variable name="x_10_0" index="230" value="1.00000"/>
  <variable name="x_11_18" index="270" value="1.00000"/>
  <variable name="x_12_4" index="280" value="1.00000"/>
  <variable name="x_13_0" index="299" value="1.00000"/>
  <variable name="x_14_0" index="322" value="1.00000"/>
  <variable name="x_15_0" index="345" value="1.00000"/>
  <variable name="x_16_0" index="368" value="1.00000"/>
  <variable name="x_17_0" index="391" value="1.00000"/>
  <variable name="x_18_10" index="424" value="1.00000"/>
  <variable name="x_19_0" index="437" value="1.00000"/>
  <variable name="x_20_21" index="480" value="1.00000"/>
  <variable name="x_21_0" index="483" value="1.00000"/>
  <variable name="x_22_0" index="506" value="1.00000"/>
  <variable name="x_23_0" index="529" value="1.00000"/>
  <variable name="u_1" index="552" value="24.00000"/>
  <variable name="u_2" index="553" value="19.00000"/>
  <variable name="u_3" index="554" value="35.00000"/>
  <variable name="u_4" index="555" value="47.00000"/>
  <variable name="u_5" index="556" value="18.00000"/>
  <variable name="u_6" index="557" value="9.00000"/>
  <variable name="u_7" index="558" value="39.00000"/>
  <variable name="u_8" index="559" value="46.00000"/>
  <variable name="u_9" index="560" value="15.00000"/>
  <variable name="u_10" index="561" value="45.00000"/>
  <variable name="u_11" index="562" value="20.00000"/>
  <variable name="u_12" index="563" value="25.00000"/>
  <variable name="u_13" index="564" value="38.00000"/>
  <variable name="u_14" index="565" value="47.00000"/>
  <variable name="u_15" index="566" value="42.00000"/>
  <variable name="u_16" index="567" value="45.00000"/>
  <variable name="u_17" index="568" value="36.00000"/>
  <variable name="u_18" index="569" value="32.00000"/>
  <variable name="u_19" index="570" value="36.00000"/>
  <variable name="u_20" index="571" value="35.00000"/>
  <variable name="u_21" index="572" value="44.00000"/>
  <variable name="u_22" index="573" value="44.00000"/>
  <variable name="u_23" index="574" value="37.00000"/>
 </variables>
</CPLEXSolution>
